
Gurobi 9.5.0 (mac64[x86]) logging started Fri  7 Oct 16:14:58 2022

Set parameter LogFile to value "/Users/nikitabelyak/Dropbox (Aalto)/TSEP/Nordic_case_study/2022 data/optimisation_results/07_Oct_2022_16_14_58.log"
Set parameter Threads to value 6
